TITLE
menthol-methanol-dmf, qmmm specification file

	>>> Generated with PyGromosTools (riniker group) <<<
END
QMUNIT
#    QMULEN       QMUENE       QMUFOR   QMUCHR
   0.052918 	  2625.5 	  1.0 	   0.1
END
QMZONE
# NETCH   SPINM
      0       1
#                             QMI   QMZ  QMLI
H                               1     1     0
C                               2     6     0
H                               3     1     0
H                               4     1     0
C                               5     6     0
H                               6     1     0
C                               7     6     0
H                               8     1     0
H                               9     1     0
H                              10     1     0
C                              11     6     0
H                              12     1     0
C                              13     6     0
H                              14     1     0
H                              15     1     0
C                              16     6     0
H                              17     1     0
H                              18     1     0
C                              19     6     0
H                              20     1     0
C                              21     6     0
H                              22     1     0
H                              23     1     0
H                              24     1     0
C                              25     6     0
H                              26     1     0
H                              27     1     0
C                              28     6     0
H                              29     1     0
O                              30     8     0
H                              31     1     0
END
ORCAHEADER
! Title of my QM/MM simulation
! BP86 def2-SVP defgrid3 EnGrad TightSCF
%scf
MaxIter 1500
DIISMaxEq 15
end
%pointcharges "@@POINTCHARGES@@"

* xyzfile @@CHARGE@@ @@SPINM@@
END
ORCABINARY
/home/fpultar/opt/orca-5.0.3/orca
END
ORCAFILES
/home/fpultar/src/gromos-standard/gromosXX/gromosXX/src/check/data/orca/menthol.inp
/home/fpultar/src/gromos-standard/gromosXX/gromosXX/src/check/data/orca/menthol.out
/home/fpultar/src/gromos-standard/gromosXX/gromosXX/src/check/data/orca/pointcharges.pc
/home/fpultar/src/gromos-standard/gromosXX/gromosXX/src/check/data/orca/menthol.engrad
/home/fpultar/src/gromos-standard/gromosXX/gromosXX/src/check/data/orca/menthol.pcgrad
END
